
Gurobi 10.0.2 (win64) logging started Thu Jul 13 12:53:10 2023

Set parameter LogFile to value "Outputs/Logfiles/model_moo(Jul 13,1253).log"
Gurobi Optimizer version 10.0.2 build v10.0.2rc0 (win64)

CPU model: Intel(R) Core(TM) i5-8265U CPU @ 1.60GHz, instruction set [SSE2|AVX|AVX2]
Thread count: 4 physical cores, 8 logical processors, using up to 8 threads

Optimize a model with 1832 rows, 1436 columns and 4534 nonzeros
Model fingerprint: 0x5f582507
Variable types: 1062 continuous, 374 integer (374 binary)
Coefficient statistics:
  Matrix range     [1e+00, 2e+25]
  Objective range  [1e-02, 2e+02]
  Bounds range     [1e+00, 1e+00]
  RHS range        [1e+00, 1e+12]
Warning: Model contains large matrix coefficient range
Warning: Model contains large rhs
         Consider reformulating model or setting NumericFocus parameter
         to avoid numerical issues.

---------------------------------------------------------------------------
Multi-objectives: starting optimization with 2 objectives ... 
---------------------------------------------------------------------------

Multi-objectives: applying initial presolve ...
---------------------------------------------------------------------------

Presolve removed 1337 rows and 708 columns
Presolve time: 0.02s
Presolved: 495 rows and 728 columns
---------------------------------------------------------------------------

Multi-objectives: optimize objective 1 (objective_re_1) ...
---------------------------------------------------------------------------

Found heuristic solution: objective 0.0000000
Presolve removed 79 rows and 373 columns
Presolve time: 0.05s
Presolved: 416 rows, 355 columns, 1025 nonzeros
Variable types: 0 continuous, 355 integer (355 binary)
Found heuristic solution: objective -898.2544191

Root relaxation: objective -1.127227e+03, 264 iterations, 0.02 seconds (0.00 work units)

    Nodes    |    Current Node    |     Objective Bounds      |     Work
 Expl Unexpl |  Obj  Depth IntInf | Incumbent    BestBd   Gap | It/Node Time

*    0     0               0    -1127.227354 -1127.2274  0.00%     -    0s

Explored 1 nodes (264 simplex iterations) in 0.95 seconds (0.01 work units)
Thread count was 8 (of 8 available processors)

Solution count 2: -1127.23 -898.254 
No other solutions better than -1127.23

Optimal solution found (tolerance 1.00e-04)
Best objective -1.127227353674e+03, best bound -1.127227353674e+03, gap 0.0000%
---------------------------------------------------------------------------

Multi-objectives: optimize objective 2 (objective_cost_2) ...
---------------------------------------------------------------------------


Loaded user MIP start with objective 800

Presolve removed 140 rows and 422 columns
Presolve time: 0.03s
Presolved: 356 rows, 306 columns, 1171 nonzeros
Found heuristic solution: objective -4619.704306
Variable types: 0 continuous, 306 integer (306 binary)

Root relaxation: objective -4.620087e+03, 312 iterations, 0.03 seconds (0.00 work units)

    Nodes    |    Current Node    |     Objective Bounds      |     Work
 Expl Unexpl |  Obj  Depth IntInf | Incumbent    BestBd   Gap | It/Node Time

     0     0 -4620.0873    0   46 -4619.7043 -4620.0873  0.01%     -    1s

Explored 1 nodes (312 simplex iterations) in 1.50 seconds (0.02 work units)
Thread count was 8 (of 8 available processors)

Solution count 1: -4619.7 

Optimal solution found (tolerance 1.00e-04)
Best objective -4.619704305556e+03, best bound -4.620087324617e+03, gap 0.0083%

---------------------------------------------------------------------------
Multi-objectives: solved in 1.68 seconds (0.02 work units), solution count 3


    Variable            X 
-------------------------
cover[o74,s13]            1 
cover[o98,s13]            1 
cover[o53,s7]            1 
cover[o178,s2]            1 
cover[o203,s19]            1 
cover[o127,s13]            1 
cover[o172,s2]            1 
cover[o51,s13]            1 
cover[o7,s19]            1 
cover[o30,s1]            1 
cover[o221,s1]            1 
cover[o64,s7]            1 
cover[o25,s1]            1 
cover[o94,s19]            1 
cover[o119,s13]            1 
cover[o148,s7]            1 
cover[o86,s19]            1 
cover[o93,s19]            1 
cover[o108,s13]            1 
cover[o131,s7]            1 
cover[o6,s19]            1 
cover[o10,s19]            1 
cover[o41,s2]            1 
cover[o144,s7]            1 
cover[o169,s2]            1 
cover[o185,s1]            1 
cover[o87,s19]            1 
cover[o168,s2]            1 
cover[o24,s1]            1 
cover[o190,s7]            1 
cover[o97,s13]            1 
cover[o162,s2]            1 
cover[o106,s13]            1 
cover[o157,s2]            1 
cover[o175,s2]            1 
cover[o136,s7]            1 
cover[o145,s7]            1 
cover[o3,s7]            1 
cover[o28,s1]            1 
cover[o27,s1]            1 
cover[o219,s1]            1 
cover[o9,s13]            1 
cover[o212,s7]            1 
cover[o139,s7]            1 
cover[o214,s7]            1 
cover[o113,s13]            1 
cover[o160,s2]            1 
cover[o191,s7]            1 
cover[o104,s13]            1 
cover[o184,s1]            1 
cover[o37,s2]            1 
cover[o165,s2]            1 
cover[o83,s19]            1 
cover[o114,s13]            1 
cover[o155,s2]            1 
cover[o91,s19]            1 
cover[o138,s7]            1 
cover[o183,s1]            1 
cover[o11,s13]            1 
cover[o181,s1]            1 
cover[o159,s2]            1 
cover[o48,s13]            1 
cover[o129,s13]            1 
cover[o158,s2]            1 
cover[o117,s13]            1 
cover[o153,s2]            1 
cover[o101,s13]            1 
cover[o44,s19]            1 
cover[o109,s13]            1 
cover[o59,s7]            1 
cover[o121,s13]            1 
cover[o13,s7]            1 
cover[o128,s13]            1 
cover[o90,s19]            1 
cover[o79,s19]            1 
cover[o161,s2]            1 
cover[o163,s2]            1 
cover[o130,s7]            1 
cover[o107,s13]            1 
cover[o42,s2]            1 
cover[o19,s7]            1 
cover[o22,s1]            1 
cover[o187,s1]            1 
cover[o84,s19]            1 
cover[o132,s7]            1 
cover[o198,s1]            1 
cover[o49,s13]            1 
cover[o116,s13]            1 
cover[o124,s13]            1 
cover[o134,s7]            1 
cover[o82,s19]            1 
cover[o220,s1]            1 
cover[o43,s2]            1 
cover[o192,s1]            1 
cover[o174,s2]            1 
cover[o78,s19]            1 
  select[s1]            1 
  select[s2]            1 
 select[s19]            1 
 select[s13]            1 
  select[s7]            1 
deploy[o74,s13,m]           20 
deploy[o98,s13,c]           31 
deploy[o53,s7,i]          157 
deploy[o178,s2,i]          157 
deploy[o203,s19,c]            5 
deploy[o127,s13,i]            7 
deploy[o172,s2,m]            2 
deploy[o51,s13,c]           31 
deploy[o7,s19,i]           37 
deploy[o30,s1,m]          100 
deploy[o221,s1,c]          110 
deploy[o64,s7,c]           31 
deploy[o25,s1,m]           20 
deploy[o94,s19,c]            5 
deploy[o119,s13,c]          110 
deploy[o148,s7,c]            5 
deploy[o108,s13,c]           31 
deploy[o131,s7,i]            7 
deploy[o10,s19,c]          110 
deploy[o41,s2,m]          100 
deploy[o144,s7,i]          157 
deploy[o169,s1,c]           31 
deploy[o169,s2,c]           31 
deploy[o185,s1,m]          100 
deploy[o87,s19,c]          110 
deploy[o168,s2,i]           37 
deploy[o24,s1,i]            7 
deploy[o24,s2,i]            7 
deploy[o190,s7,m]           20 
deploy[o97,s13,i]            7 
deploy[o162,s2,i]            7 
deploy[o106,s13,m]            2 
deploy[o157,s2,i]            7 
deploy[o175,s2,m]           20 
deploy[o136,s7,c]          110 
deploy[o145,s7,m]           20 
deploy[o3,s7,m]           20 
deploy[o28,s1,c]           31 
deploy[o27,s1,i]           37 
deploy[o219,s1,m]            2 
deploy[o9,s13,i]           37 
deploy[o212,s7,m]            2 
deploy[o139,s7,i]           37 
deploy[o214,s7,i]           37 
deploy[o113,s13,c]            5 
deploy[o160,s2,m]           20 
deploy[o191,s7,c]           31 
deploy[o104,s13,i]            7 
deploy[o184,s1,c]           31 
deploy[o37,s1,m]            2 
deploy[o37,s2,m]            2 
deploy[o165,s2,i]            7 
deploy[o114,s13,m]          100 
deploy[o155,s2,c]            5 
deploy[o138,s7,c]          110 
deploy[o183,s1,i]            7 
deploy[o11,s13,i]          157 
deploy[o181,s1,c]          110 
deploy[o159,s2,c]           31 
deploy[o48,s13,i]            7 
deploy[o129,s13,c]          110 
deploy[o158,s2,m]          100 
deploy[o117,s13,c]           31 
deploy[o153,s2,m]            2 
deploy[o101,s13,m]           20 
deploy[o44,s19,c]           31 
deploy[o109,s13,c]            5 
deploy[o59,s7,m]            2 
deploy[o121,s13,i]          157 
deploy[o13,s7,c]            5 
deploy[o128,s13,m]            2 
deploy[o90,s19,i]           37 
deploy[o79,s19,i]          157 
deploy[o161,s2,m]           20 
deploy[o163,s2,c]          110 
deploy[o130,s7,c]            5 
deploy[o107,s13,i]           37 
deploy[o42,s2,i]           37 
deploy[o19,s7,c]            5 
deploy[o22,s1,c]          110 
deploy[o187,s1,i]            7 
deploy[o84,s19,c]           31 
deploy[o132,s7,m]            2 
deploy[o198,s1,m]            2 
deploy[o49,s13,i]          157 
deploy[o116,s13,i]           37 
deploy[o124,s13,c]          110 
deploy[o134,s7,c]          110 
deploy[o82,s19,i]           37 
deploy[o220,s1,m]           20 
deploy[o43,s2,m]          100 
deploy[o192,s1,i]            7 
deploy[o174,s2,i]          157 
deploy[o78,s19,c]           31 

Gurobi 10.0.2 (win64) logging started Thu Jul 13 12:53:58 2023

Set parameter LogFile to value "Outputs/Logfiles/model_moo(Jul 13,1253).log"
Gurobi Optimizer version 10.0.2 build v10.0.2rc0 (win64)

CPU model: Intel(R) Core(TM) i5-8265U CPU @ 1.60GHz, instruction set [SSE2|AVX|AVX2]
Thread count: 4 physical cores, 8 logical processors, using up to 8 threads

Optimize a model with 1832 rows, 1436 columns and 4534 nonzeros
Model fingerprint: 0x456988af
Variable types: 1062 continuous, 374 integer (374 binary)
Coefficient statistics:
  Matrix range     [1e+00, 2e+25]
  Objective range  [1e-02, 2e+02]
  Bounds range     [1e+00, 1e+00]
  RHS range        [1e+00, 1e+12]
Warning: Model contains large matrix coefficient range
Warning: Model contains large rhs
         Consider reformulating model or setting NumericFocus parameter
         to avoid numerical issues.

---------------------------------------------------------------------------
Multi-objectives: starting optimization with 2 objectives ... 
---------------------------------------------------------------------------

Multi-objectives: applying initial presolve ...
---------------------------------------------------------------------------

Presolve removed 1337 rows and 708 columns
Presolve time: 0.00s
Presolved: 495 rows and 728 columns
---------------------------------------------------------------------------

Multi-objectives: optimize objective 1 (objective_re_1) ...
---------------------------------------------------------------------------

Found heuristic solution: objective 0.0000000
Presolve removed 79 rows and 373 columns
Presolve time: 0.00s
Presolved: 416 rows, 355 columns, 1025 nonzeros
Variable types: 0 continuous, 355 integer (355 binary)
Found heuristic solution: objective -898.2854178

Root relaxation: objective -1.149129e+03, 180 iterations, 0.00 seconds (0.00 work units)

    Nodes    |    Current Node    |     Objective Bounds      |     Work
 Expl Unexpl |  Obj  Depth IntInf | Incumbent    BestBd   Gap | It/Node Time

*    0     0               0    -1149.128698 -1149.1287  0.00%     -    0s

Explored 1 nodes (180 simplex iterations) in 0.07 seconds (0.01 work units)
Thread count was 8 (of 8 available processors)

Solution count 2: -1149.13 -898.285 
No other solutions better than -1149.13

Optimal solution found (tolerance 1.00e-04)
Best objective -1.149128698059e+03, best bound -1.149128698059e+03, gap 0.0000%
---------------------------------------------------------------------------

Multi-objectives: optimize objective 2 (objective_cost_2) ...
---------------------------------------------------------------------------


Loaded user MIP start with objective 825

Presolve removed 140 rows and 422 columns
Presolve time: 0.01s
Presolved: 356 rows, 306 columns, 1171 nonzeros
Found heuristic solution: objective -4249.835139
Variable types: 0 continuous, 306 integer (306 binary)

Root relaxation: objective -4.771493e+03, 401 iterations, 0.00 seconds (0.00 work units)

    Nodes    |    Current Node    |     Objective Bounds      |     Work
 Expl Unexpl |  Obj  Depth IntInf | Incumbent    BestBd   Gap | It/Node Time

     0     0 -4771.4930    0   23 -4249.8351 -4771.4930  12.3%     -    0s
H    0     0                    -4515.280417 -4771.4930  5.67%     -    0s

Cutting planes:
  RLT: 1

Explored 1 nodes (401 simplex iterations) in 0.27 seconds (0.02 work units)
Thread count was 8 (of 8 available processors)

Solution count 2: -4515.28 -4249.84 
No other solutions better than -4515.28

Optimal solution found (tolerance 1.00e-04)
Best objective -4.515280416667e+03, best bound -4.515280416667e+03, gap 0.0000%

---------------------------------------------------------------------------
Multi-objectives: solved in 0.29 seconds (0.02 work units), solution count 4


    Variable            X 
-------------------------
cover[o74,s13]            1 
cover[o98,s13]            1 
cover[o53,s11]            1 
cover[o178,s2]            1 
cover[o203,s19]            1 
cover[o127,s13]            1 
cover[o172,s2]            1 
cover[o51,s13]            1 
cover[o7,s19]            1 
cover[o30,s1]            1 
cover[o221,s1]            1 
cover[o64,s11]            1 
cover[o25,s1]            1 
cover[o94,s19]            1 
cover[o119,s13]            1 
cover[o148,s3]            1 
cover[o208,s3]            1 
cover[o86,s19]            1 
cover[o93,s19]            1 
cover[o108,s13]            1 
cover[o131,s11]            1 
cover[o6,s19]            1 
cover[o10,s19]            1 
cover[o41,s2]            1 
cover[o144,s3]            1 
cover[o169,s2]            1 
cover[o185,s1]            1 
cover[o87,s19]            1 
cover[o168,s2]            1 
cover[o24,s1]            1 
cover[o190,s11]            1 
cover[o97,s13]            1 
cover[o162,s2]            1 
cover[o106,s13]            1 
cover[o157,s3]            1 
cover[o175,s2]            1 
cover[o136,s11]            1 
cover[o145,s3]            1 
cover[o3,s11]            1 
cover[o28,s1]            1 
cover[o45,s11]            1 
cover[o27,s1]            1 
cover[o219,s1]            1 
cover[o9,s13]            1 
cover[o212,s3]            1 
cover[o139,s11]            1 
cover[o214,s3]            1 
cover[o113,s13]            1 
cover[o160,s3]            1 
cover[o191,s11]            1 
cover[o104,s13]            1 
cover[o184,s1]            1 
cover[o37,s2]            1 
cover[o165,s2]            1 
cover[o83,s19]            1 
cover[o114,s13]            1 
cover[o155,s3]            1 
cover[o91,s19]            1 
cover[o138,s11]            1 
cover[o183,s1]            1 
cover[o11,s13]            1 
cover[o181,s1]            1 
cover[o159,s2]            1 
cover[o48,s13]            1 
cover[o129,s13]            1 
cover[o158,s2]            1 
cover[o117,s13]            1 
cover[o153,s3]            1 
cover[o101,s13]            1 
cover[o44,s19]            1 
cover[o109,s13]            1 
cover[o59,s11]            1 
cover[o121,s13]            1 
cover[o13,s11]            1 
cover[o128,s13]            1 
cover[o90,s19]            1 
cover[o79,s19]            1 
cover[o161,s3]            1 
cover[o163,s3]            1 
cover[o130,s11]            1 
cover[o107,s13]            1 
cover[o42,s2]            1 
cover[o19,s3]            1 
cover[o22,s1]            1 
cover[o187,s1]            1 
cover[o84,s19]            1 
cover[o132,s11]            1 
cover[o198,s1]            1 
cover[o49,s13]            1 
cover[o116,s13]            1 
cover[o124,s13]            1 
cover[o134,s11]            1 
cover[o82,s19]            1 
cover[o220,s1]            1 
cover[o207,s3]            1 
cover[o43,s2]            1 
cover[o192,s1]            1 
cover[o174,s2]            1 
cover[o78,s19]            1 
  select[s1]            1 
 select[s11]            1 
  select[s2]            1 
  select[s3]            1 
 select[s19]            1 
 select[s13]            1 
deploy[o74,s13,m]           20 
deploy[o98,s13,c]           31 
deploy[o53,s11,i]          157 
deploy[o178,s2,i]          157 
deploy[o203,s19,c]            5 
deploy[o127,s13,i]            7 
deploy[o172,s2,m]            2 
deploy[o172,s3,m]            2 
deploy[o51,s13,c]           31 
deploy[o7,s19,i]           37 
deploy[o30,s1,m]          100 
deploy[o221,s1,c]          110 
deploy[o64,s11,c]           31 
deploy[o25,s1,m]           20 
deploy[o94,s19,c]            5 
deploy[o119,s13,c]          110 
deploy[o148,s3,c]            5 
deploy[o208,s3,i]          157 
deploy[o108,s13,c]           31 
deploy[o131,s11,i]            7 
deploy[o10,s19,c]          110 
deploy[o41,s2,m]          100 
deploy[o41,s3,m]          100 
deploy[o144,s3,i]          157 
deploy[o169,s1,c]           31 
deploy[o169,s2,c]           31 
deploy[o185,s1,m]          100 
deploy[o87,s19,c]          110 
deploy[o168,s2,i]           37 
deploy[o168,s3,i]           37 
deploy[o24,s1,i]            7 
deploy[o24,s2,i]            7 
deploy[o97,s13,i]            7 
deploy[o162,s2,i]            7 
deploy[o162,s3,i]            7 
deploy[o106,s13,m]            2 
deploy[o157,s2,i]            7 
deploy[o157,s3,i]            7 
deploy[o175,s2,m]           20 
deploy[o136,s11,c]          110 
deploy[o145,s3,m]           20 
deploy[o28,s1,c]           31 
deploy[o45,s11,i]           37 
deploy[o27,s1,i]           37 
deploy[o219,s1,m]            2 
deploy[o9,s13,i]           37 
deploy[o212,s3,m]            2 
deploy[o139,s11,i]           37 
deploy[o214,s3,i]           37 
deploy[o113,s13,c]            5 
deploy[o160,s2,m]           20 
deploy[o160,s3,m]           20 
deploy[o191,s11,c]           31 
deploy[o104,s13,i]            7 
deploy[o184,s1,c]           31 
deploy[o37,s1,m]            2 
deploy[o37,s2,m]            2 
deploy[o165,s2,i]            7 
deploy[o114,s13,m]          100 
deploy[o155,s2,c]            5 
deploy[o155,s3,c]            5 
deploy[o138,s11,c]          110 
deploy[o183,s1,i]            7 
deploy[o11,s13,i]          157 
deploy[o181,s1,c]          110 
deploy[o159,s2,c]           31 
deploy[o159,s3,c]           31 
deploy[o48,s13,i]            7 
deploy[o129,s13,c]          110 
deploy[o158,s2,m]          100 
deploy[o158,s3,m]          100 
deploy[o117,s13,c]           31 
deploy[o153,s2,m]            2 
deploy[o153,s3,m]            2 
deploy[o101,s13,m]           20 
deploy[o44,s19,c]           31 
deploy[o109,s13,c]            5 
deploy[o121,s13,i]          157 
deploy[o13,s11,c]            5 
deploy[o128,s13,m]            2 
deploy[o90,s19,i]           37 
deploy[o79,s19,i]          157 
deploy[o161,s2,m]           20 
deploy[o161,s3,m]           20 
deploy[o163,s2,c]          110 
deploy[o163,s3,c]          110 
deploy[o130,s11,c]            5 
deploy[o107,s13,i]           37 
deploy[o42,s2,i]           37 
deploy[o19,s3,c]            5 
deploy[o22,s1,c]          110 
deploy[o187,s1,i]            7 
deploy[o84,s19,c]           31 
deploy[o198,s1,m]            2 
deploy[o49,s13,i]          157 
deploy[o116,s13,i]           37 
deploy[o124,s13,c]          110 
deploy[o134,s11,c]          110 
deploy[o82,s19,i]           37 
deploy[o220,s1,m]           20 
deploy[o207,s3,m]            2 
deploy[o43,s2,m]          100 
deploy[o43,s3,m]          100 
deploy[o192,s1,i]            7 
deploy[o174,s2,i]          157 
deploy[o174,s3,i]          157 
deploy[o78,s19,c]           31 
